rup/magic_series_6.rup
339:50 55 53 58 110
340:50 55 53 58 110
341:50 55 53 58 110
342:50 55 53 58 110
343:50 55 53 58 110
344:50 55 53 58 110
345:110 339 340 341 342 343 344 1
346:345
347:58
348:110 339 347 341 342 343 344 1
349:348
350:110 339 347 340 342 343 344 1
351:350
352:110 339 347 340 341 343 344 1
353:352
354:110 339 347 340 341 342 344 1
355:354
356:110 339 347 340 341 342 343 1
357:356
358:50 55 53 58 110
359:117
